p cnf 96 2691
1 2 3 4 5 6 7 8 9 10 11 12 13 14 15 16 0
17 18 19 20 21 22 23 24 25 26 27 28 29 30 31 32 0
33 34 35 36 37 38 39 40 41 42 43 44 45 46 47 48 0
49 50 51 52 53 54 55 56 57 58 59 60 61 62 63 64 0
65 66 67 68 69 70 71 72 73 74 75 76 77 78 79 80 0
81 82 83 84 85 86 87 88 89 90 91 92 93 94 95 96 0
-1 -17 0
-2 -18 0
-3 -19 0
-4 -20 0
-5 -21 0
-6 -22 0
-7 -23 0
-8 -24 0
-9 -25 0
-10 -26 0
-11 -27 0
-12 -28 0
-13 -29 0
-14 -30 0
-15 -31 0
-16 -32 0
-1 -33 0
-2 -34 0
-3 -35 0
-4 -36 0
-5 -37 0
-6 -38 0
-7 -39 0
-8 -40 0
-9 -41 0
-10 -42 0
-11 -43 0
-12 -44 0
-13 -45 0
-14 -46 0
-15 -47 0
-16 -48 0
-1 -49 0
-2 -50 0
-3 -51 0
-4 -52 0
-5 -53 0
-6 -54 0
-7 -55 0
-8 -56 0
-9 -57 0
-10 -58 0
-11 -59 0
-12 -60 0
-13 -61 0
-14 -62 0
-15 -63 0
-16 -64 0
-1 -65 0
-2 -66 0
-3 -67 0
-4 -68 0
-5 -69 0
-6 -70 0
-7 -71 0
-8 -72 0
-9 -73 0
-10 -74 0
-11 -75 0
-12 -76 0
-13 -77 0
-14 -78 0
-15 -79 0
-16 -80 0
-1 -81 0
-2 -82 0
-3 -83 0
-4 -84 0
-5 -85 0
-6 -86 0
-7 -87 0
-8 -88 0
-9 -89 0
-10 -90 0
-11 -91 0
-12 -92 0
-13 -93 0
-14 -94 0
-15 -95 0
-16 -96 0
-17 -33 0
-18 -34 0
-19 -35 0
-20 -36 0
-21 -37 0
-22 -38 0
-23 -39 0
-24 -40 0
-25 -41 0
-26 -42 0
-27 -43 0
-28 -44 0
-29 -45 0
-30 -46 0
-31 -47 0
-32 -48 0
-17 -49 0
-18 -50 0
-19 -51 0
-20 -52 0
-21 -53 0
-22 -54 0
-23 -55 0
-24 -56 0
-25 -57 0
-26 -58 0
-27 -59 0
-28 -60 0
-29 -61 0
-30 -62 0
-31 -63 0
-32 -64 0
-17 -65 0
-18 -66 0
-19 -67 0
-20 -68 0
-21 -69 0
-22 -70 0
-23 -71 0
-24 -72 0
-25 -73 0
-26 -74 0
-27 -75 0
-28 -76 0
-29 -77 0
-30 -78 0
-31 -79 0
-32 -80 0
-17 -81 0
-18 -82 0
-19 -83 0
-20 -84 0
-21 -85 0
-22 -86 0
-23 -87 0
-24 -88 0
-25 -89 0
-26 -90 0
-27 -91 0
-28 -92 0
-29 -93 0
-30 -94 0
-31 -95 0
-32 -96 0
-33 -49 0
-34 -50 0
-35 -51 0
-36 -52 0
-37 -53 0
-38 -54 0
-39 -55 0
-40 -56 0
-41 -57 0
-42 -58 0
-43 -59 0
-44 -60 0
-45 -61 0
-46 -62 0
-47 -63 0
-48 -64 0
-33 -65 0
-34 -66 0
-35 -67 0
-36 -68 0
-37 -69 0
-38 -70 0
-39 -71 0
-40 -72 0
-41 -73 0
-42 -74 0
-43 -75 0
-44 -76 0
-45 -77 0
-46 -78 0
-47 -79 0
-48 -80 0
-33 -81 0
-34 -82 0
-35 -83 0
-36 -84 0
-37 -85 0
-38 -86 0
-39 -87 0
-40 -88 0
-41 -89 0
-42 -90 0
-43 -91 0
-44 -92 0
-45 -93 0
-46 -94 0
-47 -95 0
-48 -96 0
-49 -65 0
-50 -66 0
-51 -67 0
-52 -68 0
-53 -69 0
-54 -70 0
-55 -71 0
-56 -72 0
-57 -73 0
-58 -74 0
-59 -75 0
-60 -76 0
-61 -77 0
-62 -78 0
-63 -79 0
-64 -80 0
-49 -81 0
-50 -82 0
-51 -83 0
-52 -84 0
-53 -85 0
-54 -86 0
-55 -87 0
-56 -88 0
-57 -89 0
-58 -90 0
-59 -91 0
-60 -92 0
-61 -93 0
-62 -94 0
-63 -95 0
-64 -96 0
-65 -81 0
-66 -82 0
-67 -83 0
-68 -84 0
-69 -85 0
-70 -86 0
-71 -87 0
-72 -88 0
-73 -89 0
-74 -90 0
-75 -91 0
-76 -92 0
-77 -93 0
-78 -94 0
-79 -95 0
-80 -96 0
-1 -18 0
-1 -32 0
-2 -17 0
-2 -20 0
-2 -22 0
-2 -24 0
-2 -28 0
-2 -30 0
-2 -31 0
-3 -17 0
-3 -18 0
-3 -25 0
-4 -17 0
-4 -18 0
-4 -19 0
-4 -24 0
-4 -27 0
-4 -28 0
-4 -31 0
-4 -32 0
-5 -17 0
-5 -18 0
-5 -19 0
-5 -20 0
-5 -24 0
-5 -25 0
-5 -26 0
-5 -27 0
-5 -28 0
-5 -30 0
-5 -31 0
-5 -32 0
-6 -17 0
-6 -18 0
-6 -19 0
-6 -20 0
-6 -21 0
-6 -23 0
-6 -26 0
-6 -31 0
-7 -17 0
-7 -18 0
-7 -19 0
-7 -20 0
-7 -21 0
-7 -22 0
-7 -28 0
-7 -29 0
-7 -31 0
-8 -17 0
-8 -18 0
-8 -19 0
-8 -20 0
-8 -21 0
-8 -22 0
-8 -23 0
-8 -30 0
-8 -31 0
-9 -17 0
-9 -18 0
-9 -19 0
-9 -20 0
-9 -21 0
-9 -22 0
-9 -23 0
-9 -24 0
-9 -28 0
-9 -29 0
-9 -31 0
-9 -32 0
-10 -17 0
-10 -18 0
-10 -19 0
-10 -20 0
-10 -21 0
-10 -22 0
-10 -23 0
-10 -24 0
-10 -25 0
-10 -29 0
-10 -30 0
-11 -17 0
-11 -18 0
-11 -19 0
-11 -20 0
-11 -21 0
-11 -22 0
-11 -23 0
-11 -24 0
-11 -25 0
-11 -26 0
-11 -29 0
-11 -30 0
-12 -17 0
-12 -18 0
-12 -19 0
-12 -20 0
-12 -21 0
-12 -22 0
-12 -23 0
-12 -24 0
-12 -25 0
-12 -26 0
-12 -27 0
-12 -29 0
-12 -31 0
-13 -17 0
-13 -18 0
-13 -19 0
-13 -20 0
-13 -21 0
-13 -22 0
-13 -23 0
-13 -24 0
-13 -25 0
-13 -26 0
-13 -27 0
-13 -28 0
-13 -30 0
-13 -31 0
-13 -32 0
-14 -17 0
-14 -18 0
-14 -19 0
-14 -20 0
-14 -21 0
-14 -22 0
-14 -23 0
-14 -24 0
-14 -25 0
-14 -26 0
-14 -27 0
-14 -28 0
-14 -29 0
-15 -17 0
-15 -18 0
-15 -19 0
-15 -20 0
-15 -21 0
-15 -22 0
-15 -23 0
-15 -24 0
-15 -25 0
-15 -26 0
-15 -27 0
-15 -28 0
-15 -29 0
-15 -30 0
-16 -17 0
-16 -18 0
-16 -19 0
-16 -20 0
-16 -21 0
-16 -22 0
-16 -23 0
-16 -24 0
-16 -25 0
-16 -26 0
-16 -27 0
-16 -28 0
-16 -29 0
-16 -30 0
-16 -31 0
-1 -34 0
-1 -48 0
-2 -33 0
-2 -36 0
-2 -38 0
-2 -40 0
-2 -44 0
-2 -46 0
-2 -47 0
-3 -33 0
-3 -34 0
-3 -41 0
-4 -33 0
-4 -34 0
-4 -35 0
-4 -40 0
-4 -43 0
-4 -44 0
-4 -47 0
-4 -48 0
-5 -33 0
-5 -34 0
-5 -35 0
-5 -36 0
-5 -40 0
-5 -41 0
-5 -42 0
-5 -43 0
-5 -44 0
-5 -46 0
-5 -47 0
-5 -48 0
-6 -33 0
-6 -34 0
-6 -35 0
-6 -36 0
-6 -37 0
-6 -39 0
-6 -42 0
-6 -47 0
-7 -33 0
-7 -34 0
-7 -35 0
-7 -36 0
-7 -37 0
-7 -38 0
-7 -44 0
-7 -45 0
-7 -47 0
-8 -33 0
-8 -34 0
-8 -35 0
-8 -36 0
-8 -37 0
-8 -38 0
-8 -39 0
-8 -46 0
-8 -47 0
-9 -33 0
-9 -34 0
-9 -35 0
-9 -36 0
-9 -37 0
-9 -38 0
-9 -39 0
-9 -40 0
-9 -44 0
-9 -45 0
-9 -47 0
-9 -48 0
-10 -33 0
-10 -34 0
-10 -35 0
-10 -36 0
-10 -37 0
-10 -38 0
-10 -39 0
-10 -40 0
-10 -41 0
-10 -45 0
-10 -46 0
-11 -33 0
-11 -34 0
-11 -35 0
-11 -36 0
-11 -37 0
-11 -38 0
-11 -39 0
-11 -40 0
-11 -41 0
-11 -42 0
-11 -45 0
-11 -46 0
-12 -33 0
-12 -34 0
-12 -35 0
-12 -36 0
-12 -37 0
-12 -38 0
-12 -39 0
-12 -40 0
-12 -41 0
-12 -42 0
-12 -43 0
-12 -45 0
-12 -47 0
-13 -33 0
-13 -34 0
-13 -35 0
-13 -36 0
-13 -37 0
-13 -38 0
-13 -39 0
-13 -40 0
-13 -41 0
-13 -42 0
-13 -43 0
-13 -44 0
-13 -46 0
-13 -47 0
-13 -48 0
-14 -33 0
-14 -34 0
-14 -35 0
-14 -36 0
-14 -37 0
-14 -38 0
-14 -39 0
-14 -40 0
-14 -41 0
-14 -42 0
-14 -43 0
-14 -44 0
-14 -45 0
-15 -33 0
-15 -34 0
-15 -35 0
-15 -36 0
-15 -37 0
-15 -38 0
-15 -39 0
-15 -40 0
-15 -41 0
-15 -42 0
-15 -43 0
-15 -44 0
-15 -45 0
-15 -46 0
-16 -33 0
-16 -34 0
-16 -35 0
-16 -36 0
-16 -37 0
-16 -38 0
-16 -39 0
-16 -40 0
-16 -41 0
-16 -42 0
-16 -43 0
-16 -44 0
-16 -45 0
-16 -46 0
-16 -47 0
-1 -50 0
-1 -64 0
-2 -49 0
-2 -52 0
-2 -54 0
-2 -56 0
-2 -60 0
-2 -62 0
-2 -63 0
-3 -49 0
-3 -50 0
-3 -57 0
-4 -49 0
-4 -50 0
-4 -51 0
-4 -56 0
-4 -59 0
-4 -60 0
-4 -63 0
-4 -64 0
-5 -49 0
-5 -50 0
-5 -51 0
-5 -52 0
-5 -56 0
-5 -57 0
-5 -58 0
-5 -59 0
-5 -60 0
-5 -62 0
-5 -63 0
-5 -64 0
-6 -49 0
-6 -50 0
-6 -51 0
-6 -52 0
-6 -53 0
-6 -55 0
-6 -58 0
-6 -63 0
-7 -49 0
-7 -50 0
-7 -51 0
-7 -52 0
-7 -53 0
-7 -54 0
-7 -60 0
-7 -61 0
-7 -63 0
-8 -49 0
-8 -50 0
-8 -51 0
-8 -52 0
-8 -53 0
-8 -54 0
-8 -55 0
-8 -62 0
-8 -63 0
-9 -49 0
-9 -50 0
-9 -51 0
-9 -52 0
-9 -53 0
-9 -54 0
-9 -55 0
-9 -56 0
-9 -60 0
-9 -61 0
-9 -63 0
-9 -64 0
-10 -49 0
-10 -50 0
-10 -51 0
-10 -52 0
-10 -53 0
-10 -54 0
-10 -55 0
-10 -56 0
-10 -57 0
-10 -61 0
-10 -62 0
-11 -49 0
-11 -50 0
-11 -51 0
-11 -52 0
-11 -53 0
-11 -54 0
-11 -55 0
-11 -56 0
-11 -57 0
-11 -58 0
-11 -61 0
-11 -62 0
-12 -49 0
-12 -50 0
-12 -51 0
-12 -52 0
-12 -53 0
-12 -54 0
-12 -55 0
-12 -56 0
-12 -57 0
-12 -58 0
-12 -59 0
-12 -61 0
-12 -63 0
-13 -49 0
-13 -50 0
-13 -51 0
-13 -52 0
-13 -53 0
-13 -54 0
-13 -55 0
-13 -56 0
-13 -57 0
-13 -58 0
-13 -59 0
-13 -60 0
-13 -62 0
-13 -63 0
-13 -64 0
-14 -49 0
-14 -50 0
-14 -51 0
-14 -52 0
-14 -53 0
-14 -54 0
-14 -55 0
-14 -56 0
-14 -57 0
-14 -58 0
-14 -59 0
-14 -60 0
-14 -61 0
-15 -49 0
-15 -50 0
-15 -51 0
-15 -52 0
-15 -53 0
-15 -54 0
-15 -55 0
-15 -56 0
-15 -57 0
-15 -58 0
-15 -59 0
-15 -60 0
-15 -61 0
-15 -62 0
-16 -49 0
-16 -50 0
-16 -51 0
-16 -52 0
-16 -53 0
-16 -54 0
-16 -55 0
-16 -56 0
-16 -57 0
-16 -58 0
-16 -59 0
-16 -60 0
-16 -61 0
-16 -62 0
-16 -63 0
-1 -66 0
-1 -80 0
-2 -65 0
-2 -68 0
-2 -70 0
-2 -72 0
-2 -76 0
-2 -78 0
-2 -79 0
-3 -65 0
-3 -66 0
-3 -73 0
-4 -65 0
-4 -66 0
-4 -67 0
-4 -72 0
-4 -75 0
-4 -76 0
-4 -79 0
-4 -80 0
-5 -65 0
-5 -66 0
-5 -67 0
-5 -68 0
-5 -72 0
-5 -73 0
-5 -74 0
-5 -75 0
-5 -76 0
-5 -78 0
-5 -79 0
-5 -80 0
-6 -65 0
-6 -66 0
-6 -67 0
-6 -68 0
-6 -69 0
-6 -71 0
-6 -74 0
-6 -79 0
-7 -65 0
-7 -66 0
-7 -67 0
-7 -68 0
-7 -69 0
-7 -70 0
-7 -76 0
-7 -77 0
-7 -79 0
-8 -65 0
-8 -66 0
-8 -67 0
-8 -68 0
-8 -69 0
-8 -70 0
-8 -71 0
-8 -78 0
-8 -79 0
-9 -65 0
-9 -66 0
-9 -67 0
-9 -68 0
-9 -69 0
-9 -70 0
-9 -71 0
-9 -72 0
-9 -76 0
-9 -77 0
-9 -79 0
-9 -80 0
-10 -65 0
-10 -66 0
-10 -67 0
-10 -68 0
-10 -69 0
-10 -70 0
-10 -71 0
-10 -72 0
-10 -73 0
-10 -77 0
-10 -78 0
-11 -65 0
-11 -66 0
-11 -67 0
-11 -68 0
-11 -69 0
-11 -70 0
-11 -71 0
-11 -72 0
-11 -73 0
-11 -74 0
-11 -77 0
-11 -78 0
-12 -65 0
-12 -66 0
-12 -67 0
-12 -68 0
-12 -69 0
-12 -70 0
-12 -71 0
-12 -72 0
-12 -73 0
-12 -74 0
-12 -75 0
-12 -77 0
-12 -79 0
-13 -65 0
-13 -66 0
-13 -67 0
-13 -68 0
-13 -69 0
-13 -70 0
-13 -71 0
-13 -72 0
-13 -73 0
-13 -74 0
-13 -75 0
-13 -76 0
-13 -78 0
-13 -79 0
-13 -80 0
-14 -65 0
-14 -66 0
-14 -67 0
-14 -68 0
-14 -69 0
-14 -70 0
-14 -71 0
-14 -72 0
-14 -73 0
-14 -74 0
-14 -75 0
-14 -76 0
-14 -77 0
-15 -65 0
-15 -66 0
-15 -67 0
-15 -68 0
-15 -69 0
-15 -70 0
-15 -71 0
-15 -72 0
-15 -73 0
-15 -74 0
-15 -75 0
-15 -76 0
-15 -77 0
-15 -78 0
-16 -65 0
-16 -66 0
-16 -67 0
-16 -68 0
-16 -69 0
-16 -70 0
-16 -71 0
-16 -72 0
-16 -73 0
-16 -74 0
-16 -75 0
-16 -76 0
-16 -77 0
-16 -78 0
-16 -79 0
-1 -82 0
-1 -96 0
-2 -81 0
-2 -84 0
-2 -86 0
-2 -88 0
-2 -92 0
-2 -94 0
-2 -95 0
-3 -81 0
-3 -82 0
-3 -89 0
-4 -81 0
-4 -82 0
-4 -83 0
-4 -88 0
-4 -91 0
-4 -92 0
-4 -95 0
-4 -96 0
-5 -81 0
-5 -82 0
-5 -83 0
-5 -84 0
-5 -88 0
-5 -89 0
-5 -90 0
-5 -91 0
-5 -92 0
-5 -94 0
-5 -95 0
-5 -96 0
-6 -81 0
-6 -82 0
-6 -83 0
-6 -84 0
-6 -85 0
-6 -87 0
-6 -90 0
-6 -95 0
-7 -81 0
-7 -82 0
-7 -83 0
-7 -84 0
-7 -85 0
-7 -86 0
-7 -92 0
-7 -93 0
-7 -95 0
-8 -81 0
-8 -82 0
-8 -83 0
-8 -84 0
-8 -85 0
-8 -86 0
-8 -87 0
-8 -94 0
-8 -95 0
-9 -81 0
-9 -82 0
-9 -83 0
-9 -84 0
-9 -85 0
-9 -86 0
-9 -87 0
-9 -88 0
-9 -92 0
-9 -93 0
-9 -95 0
-9 -96 0
-10 -81 0
-10 -82 0
-10 -83 0
-10 -84 0
-10 -85 0
-10 -86 0
-10 -87 0
-10 -88 0
-10 -89 0
-10 -93 0
-10 -94 0
-11 -81 0
-11 -82 0
-11 -83 0
-11 -84 0
-11 -85 0
-11 -86 0
-11 -87 0
-11 -88 0
-11 -89 0
-11 -90 0
-11 -93 0
-11 -94 0
-12 -81 0
-12 -82 0
-12 -83 0
-12 -84 0
-12 -85 0
-12 -86 0
-12 -87 0
-12 -88 0
-12 -89 0
-12 -90 0
-12 -91 0
-12 -93 0
-12 -95 0
-13 -81 0
-13 -82 0
-13 -83 0
-13 -84 0
-13 -85 0
-13 -86 0
-13 -87 0
-13 -88 0
-13 -89 0
-13 -90 0
-13 -91 0
-13 -92 0
-13 -94 0
-13 -95 0
-13 -96 0
-14 -81 0
-14 -82 0
-14 -83 0
-14 -84 0
-14 -85 0
-14 -86 0
-14 -87 0
-14 -88 0
-14 -89 0
-14 -90 0
-14 -91 0
-14 -92 0
-14 -93 0
-15 -81 0
-15 -82 0
-15 -83 0
-15 -84 0
-15 -85 0
-15 -86 0
-15 -87 0
-15 -88 0
-15 -89 0
-15 -90 0
-15 -91 0
-15 -92 0
-15 -93 0
-15 -94 0
-16 -81 0
-16 -82 0
-16 -83 0
-16 -84 0
-16 -85 0
-16 -86 0
-16 -87 0
-16 -88 0
-16 -89 0
-16 -90 0
-16 -91 0
-16 -92 0
-16 -93 0
-16 -94 0
-16 -95 0
-17 -34 0
-17 -48 0
-18 -33 0
-18 -36 0
-18 -38 0
-18 -40 0
-18 -44 0
-18 -46 0
-18 -47 0
-19 -33 0
-19 -34 0
-19 -41 0
-20 -33 0
-20 -34 0
-20 -35 0
-20 -40 0
-20 -43 0
-20 -44 0
-20 -47 0
-20 -48 0
-21 -33 0
-21 -34 0
-21 -35 0
-21 -36 0
-21 -40 0
-21 -41 0
-21 -42 0
-21 -43 0
-21 -44 0
-21 -46 0
-21 -47 0
-21 -48 0
-22 -33 0
-22 -34 0
-22 -35 0
-22 -36 0
-22 -37 0
-22 -39 0
-22 -42 0
-22 -47 0
-23 -33 0
-23 -34 0
-23 -35 0
-23 -36 0
-23 -37 0
-23 -38 0
-23 -44 0
-23 -45 0
-23 -47 0
-24 -33 0
-24 -34 0
-24 -35 0
-24 -36 0
-24 -37 0
-24 -38 0
-24 -39 0
-24 -46 0
-24 -47 0
-25 -33 0
-25 -34 0
-25 -35 0
-25 -36 0
-25 -37 0
-25 -38 0
-25 -39 0
-25 -40 0
-25 -44 0
-25 -45 0
-25 -47 0
-25 -48 0
-26 -33 0
-26 -34 0
-26 -35 0
-26 -36 0
-26 -37 0
-26 -38 0
-26 -39 0
-26 -40 0
-26 -41 0
-26 -45 0
-26 -46 0
-27 -33 0
-27 -34 0
-27 -35 0
-27 -36 0
-27 -37 0
-27 -38 0
-27 -39 0
-27 -40 0
-27 -41 0
-27 -42 0
-27 -45 0
-27 -46 0
-28 -33 0
-28 -34 0
-28 -35 0
-28 -36 0
-28 -37 0
-28 -38 0
-28 -39 0
-28 -40 0
-28 -41 0
-28 -42 0
-28 -43 0
-28 -45 0
-28 -47 0
-29 -33 0
-29 -34 0
-29 -35 0
-29 -36 0
-29 -37 0
-29 -38 0
-29 -39 0
-29 -40 0
-29 -41 0
-29 -42 0
-29 -43 0
-29 -44 0
-29 -46 0
-29 -47 0
-29 -48 0
-30 -33 0
-30 -34 0
-30 -35 0
-30 -36 0
-30 -37 0
-30 -38 0
-30 -39 0
-30 -40 0
-30 -41 0
-30 -42 0
-30 -43 0
-30 -44 0
-30 -45 0
-31 -33 0
-31 -34 0
-31 -35 0
-31 -36 0
-31 -37 0
-31 -38 0
-31 -39 0
-31 -40 0
-31 -41 0
-31 -42 0
-31 -43 0
-31 -44 0
-31 -45 0
-31 -46 0
-32 -33 0
-32 -34 0
-32 -35 0
-32 -36 0
-32 -37 0
-32 -38 0
-32 -39 0
-32 -40 0
-32 -41 0
-32 -42 0
-32 -43 0
-32 -44 0
-32 -45 0
-32 -46 0
-32 -47 0
-17 -50 0
-17 -64 0
-18 -49 0
-18 -52 0
-18 -54 0
-18 -56 0
-18 -60 0
-18 -62 0
-18 -63 0
-19 -49 0
-19 -50 0
-19 -57 0
-20 -49 0
-20 -50 0
-20 -51 0
-20 -56 0
-20 -59 0
-20 -60 0
-20 -63 0
-20 -64 0
-21 -49 0
-21 -50 0
-21 -51 0
-21 -52 0
-21 -56 0
-21 -57 0
-21 -58 0
-21 -59 0
-21 -60 0
-21 -62 0
-21 -63 0
-21 -64 0
-22 -49 0
-22 -50 0
-22 -51 0
-22 -52 0
-22 -53 0
-22 -55 0
-22 -58 0
-22 -63 0
-23 -49 0
-23 -50 0
-23 -51 0
-23 -52 0
-23 -53 0
-23 -54 0
-23 -60 0
-23 -61 0
-23 -63 0
-24 -49 0
-24 -50 0
-24 -51 0
-24 -52 0
-24 -53 0
-24 -54 0
-24 -55 0
-24 -62 0
-24 -63 0
-25 -49 0
-25 -50 0
-25 -51 0
-25 -52 0
-25 -53 0
-25 -54 0
-25 -55 0
-25 -56 0
-25 -60 0
-25 -61 0
-25 -63 0
-25 -64 0
-26 -49 0
-26 -50 0
-26 -51 0
-26 -52 0
-26 -53 0
-26 -54 0
-26 -55 0
-26 -56 0
-26 -57 0
-26 -61 0
-26 -62 0
-27 -49 0
-27 -50 0
-27 -51 0
-27 -52 0
-27 -53 0
-27 -54 0
-27 -55 0
-27 -56 0
-27 -57 0
-27 -58 0
-27 -61 0
-27 -62 0
-28 -49 0
-28 -50 0
-28 -51 0
-28 -52 0
-28 -53 0
-28 -54 0
-28 -55 0
-28 -56 0
-28 -57 0
-28 -58 0
-28 -59 0
-28 -61 0
-28 -63 0
-29 -49 0
-29 -50 0
-29 -51 0
-29 -52 0
-29 -53 0
-29 -54 0
-29 -55 0
-29 -56 0
-29 -57 0
-29 -58 0
-29 -59 0
-29 -60 0
-29 -62 0
-29 -63 0
-29 -64 0
-30 -49 0
-30 -50 0
-30 -51 0
-30 -52 0
-30 -53 0
-30 -54 0
-30 -55 0
-30 -56 0
-30 -57 0
-30 -58 0
-30 -59 0
-30 -60 0
-30 -61 0
-31 -49 0
-31 -50 0
-31 -51 0
-31 -52 0
-31 -53 0
-31 -54 0
-31 -55 0
-31 -56 0
-31 -57 0
-31 -58 0
-31 -59 0
-31 -60 0
-31 -61 0
-31 -62 0
-32 -49 0
-32 -50 0
-32 -51 0
-32 -52 0
-32 -53 0
-32 -54 0
-32 -55 0
-32 -56 0
-32 -57 0
-32 -58 0
-32 -59 0
-32 -60 0
-32 -61 0
-32 -62 0
-32 -63 0
-17 -66 0
-17 -80 0
-18 -65 0
-18 -68 0
-18 -70 0
-18 -72 0
-18 -76 0
-18 -78 0
-18 -79 0
-19 -65 0
-19 -66 0
-19 -73 0
-20 -65 0
-20 -66 0
-20 -67 0
-20 -72 0
-20 -75 0
-20 -76 0
-20 -79 0
-20 -80 0
-21 -65 0
-21 -66 0
-21 -67 0
-21 -68 0
-21 -72 0
-21 -73 0
-21 -74 0
-21 -75 0
-21 -76 0
-21 -78 0
-21 -79 0
-21 -80 0
-22 -65 0
-22 -66 0
-22 -67 0
-22 -68 0
-22 -69 0
-22 -71 0
-22 -74 0
-22 -79 0
-23 -65 0
-23 -66 0
-23 -67 0
-23 -68 0
-23 -69 0
-23 -70 0
-23 -76 0
-23 -77 0
-23 -79 0
-24 -65 0
-24 -66 0
-24 -67 0
-24 -68 0
-24 -69 0
-24 -70 0
-24 -71 0
-24 -78 0
-24 -79 0
-25 -65 0
-25 -66 0
-25 -67 0
-25 -68 0
-25 -69 0
-25 -70 0
-25 -71 0
-25 -72 0
-25 -76 0
-25 -77 0
-25 -79 0
-25 -80 0
-26 -65 0
-26 -66 0
-26 -67 0
-26 -68 0
-26 -69 0
-26 -70 0
-26 -71 0
-26 -72 0
-26 -73 0
-26 -77 0
-26 -78 0
-27 -65 0
-27 -66 0
-27 -67 0
-27 -68 0
-27 -69 0
-27 -70 0
-27 -71 0
-27 -72 0
-27 -73 0
-27 -74 0
-27 -77 0
-27 -78 0
-28 -65 0
-28 -66 0
-28 -67 0
-28 -68 0
-28 -69 0
-28 -70 0
-28 -71 0
-28 -72 0
-28 -73 0
-28 -74 0
-28 -75 0
-28 -77 0
-28 -79 0
-29 -65 0
-29 -66 0
-29 -67 0
-29 -68 0
-29 -69 0
-29 -70 0
-29 -71 0
-29 -72 0
-29 -73 0
-29 -74 0
-29 -75 0
-29 -76 0
-29 -78 0
-29 -79 0
-29 -80 0
-30 -65 0
-30 -66 0
-30 -67 0
-30 -68 0
-30 -69 0
-30 -70 0
-30 -71 0
-30 -72 0
-30 -73 0
-30 -74 0
-30 -75 0
-30 -76 0
-30 -77 0
-31 -65 0
-31 -66 0
-31 -67 0
-31 -68 0
-31 -69 0
-31 -70 0
-31 -71 0
-31 -72 0
-31 -73 0
-31 -74 0
-31 -75 0
-31 -76 0
-31 -77 0
-31 -78 0
-32 -65 0
-32 -66 0
-32 -67 0
-32 -68 0
-32 -69 0
-32 -70 0
-32 -71 0
-32 -72 0
-32 -73 0
-32 -74 0
-32 -75 0
-32 -76 0
-32 -77 0
-32 -78 0
-32 -79 0
-17 -82 0
-17 -96 0
-18 -81 0
-18 -84 0
-18 -86 0
-18 -88 0
-18 -92 0
-18 -94 0
-18 -95 0
-19 -81 0
-19 -82 0
-19 -89 0
-20 -81 0
-20 -82 0
-20 -83 0
-20 -88 0
-20 -91 0
-20 -92 0
-20 -95 0
-20 -96 0
-21 -81 0
-21 -82 0
-21 -83 0
-21 -84 0
-21 -88 0
-21 -89 0
-21 -90 0
-21 -91 0
-21 -92 0
-21 -94 0
-21 -95 0
-21 -96 0
-22 -81 0
-22 -82 0
-22 -83 0
-22 -84 0
-22 -85 0
-22 -87 0
-22 -90 0
-22 -95 0
-23 -81 0
-23 -82 0
-23 -83 0
-23 -84 0
-23 -85 0
-23 -86 0
-23 -92 0
-23 -93 0
-23 -95 0
-24 -81 0
-24 -82 0
-24 -83 0
-24 -84 0
-24 -85 0
-24 -86 0
-24 -87 0
-24 -94 0
-24 -95 0
-25 -81 0
-25 -82 0
-25 -83 0
-25 -84 0
-25 -85 0
-25 -86 0
-25 -87 0
-25 -88 0
-25 -92 0
-25 -93 0
-25 -95 0
-25 -96 0
-26 -81 0
-26 -82 0
-26 -83 0
-26 -84 0
-26 -85 0
-26 -86 0
-26 -87 0
-26 -88 0
-26 -89 0
-26 -93 0
-26 -94 0
-27 -81 0
-27 -82 0
-27 -83 0
-27 -84 0
-27 -85 0
-27 -86 0
-27 -87 0
-27 -88 0
-27 -89 0
-27 -90 0
-27 -93 0
-27 -94 0
-28 -81 0
-28 -82 0
-28 -83 0
-28 -84 0
-28 -85 0
-28 -86 0
-28 -87 0
-28 -88 0
-28 -89 0
-28 -90 0
-28 -91 0
-28 -93 0
-28 -95 0
-29 -81 0
-29 -82 0
-29 -83 0
-29 -84 0
-29 -85 0
-29 -86 0
-29 -87 0
-29 -88 0
-29 -89 0
-29 -90 0
-29 -91 0
-29 -92 0
-29 -94 0
-29 -95 0
-29 -96 0
-30 -81 0
-30 -82 0
-30 -83 0
-30 -84 0
-30 -85 0
-30 -86 0
-30 -87 0
-30 -88 0
-30 -89 0
-30 -90 0
-30 -91 0
-30 -92 0
-30 -93 0
-31 -81 0
-31 -82 0
-31 -83 0
-31 -84 0
-31 -85 0
-31 -86 0
-31 -87 0
-31 -88 0
-31 -89 0
-31 -90 0
-31 -91 0
-31 -92 0
-31 -93 0
-31 -94 0
-32 -81 0
-32 -82 0
-32 -83 0
-32 -84 0
-32 -85 0
-32 -86 0
-32 -87 0
-32 -88 0
-32 -89 0
-32 -90 0
-32 -91 0
-32 -92 0
-32 -93 0
-32 -94 0
-32 -95 0
-33 -50 0
-33 -64 0
-34 -49 0
-34 -52 0
-34 -54 0
-34 -56 0
-34 -60 0
-34 -62 0
-34 -63 0
-35 -49 0
-35 -50 0
-35 -57 0
-36 -49 0
-36 -50 0
-36 -51 0
-36 -56 0
-36 -59 0
-36 -60 0
-36 -63 0
-36 -64 0
-37 -49 0
-37 -50 0
-37 -51 0
-37 -52 0
-37 -56 0
-37 -57 0
-37 -58 0
-37 -59 0
-37 -60 0
-37 -62 0
-37 -63 0
-37 -64 0
-38 -49 0
-38 -50 0
-38 -51 0
-38 -52 0
-38 -53 0
-38 -55 0
-38 -58 0
-38 -63 0
-39 -49 0
-39 -50 0
-39 -51 0
-39 -52 0
-39 -53 0
-39 -54 0
-39 -60 0
-39 -61 0
-39 -63 0
-40 -49 0
-40 -50 0
-40 -51 0
-40 -52 0
-40 -53 0
-40 -54 0
-40 -55 0
-40 -62 0
-40 -63 0
-41 -49 0
-41 -50 0
-41 -51 0
-41 -52 0
-41 -53 0
-41 -54 0
-41 -55 0
-41 -56 0
-41 -60 0
-41 -61 0
-41 -63 0
-41 -64 0
-42 -49 0
-42 -50 0
-42 -51 0
-42 -52 0
-42 -53 0
-42 -54 0
-42 -55 0
-42 -56 0
-42 -57 0
-42 -61 0
-42 -62 0
-43 -49 0
-43 -50 0
-43 -51 0
-43 -52 0
-43 -53 0
-43 -54 0
-43 -55 0
-43 -56 0
-43 -57 0
-43 -58 0
-43 -61 0
-43 -62 0
-44 -49 0
-44 -50 0
-44 -51 0
-44 -52 0
-44 -53 0
-44 -54 0
-44 -55 0
-44 -56 0
-44 -57 0
-44 -58 0
-44 -59 0
-44 -61 0
-44 -63 0
-45 -49 0
-45 -50 0
-45 -51 0
-45 -52 0
-45 -53 0
-45 -54 0
-45 -55 0
-45 -56 0
-45 -57 0
-45 -58 0
-45 -59 0
-45 -60 0
-45 -62 0
-45 -63 0
-45 -64 0
-46 -49 0
-46 -50 0
-46 -51 0
-46 -52 0
-46 -53 0
-46 -54 0
-46 -55 0
-46 -56 0
-46 -57 0
-46 -58 0
-46 -59 0
-46 -60 0
-46 -61 0
-47 -49 0
-47 -50 0
-47 -51 0
-47 -52 0
-47 -53 0
-47 -54 0
-47 -55 0
-47 -56 0
-47 -57 0
-47 -58 0
-47 -59 0
-47 -60 0
-47 -61 0
-47 -62 0
-48 -49 0
-48 -50 0
-48 -51 0
-48 -52 0
-48 -53 0
-48 -54 0
-48 -55 0
-48 -56 0
-48 -57 0
-48 -58 0
-48 -59 0
-48 -60 0
-48 -61 0
-48 -62 0
-48 -63 0
-33 -66 0
-33 -80 0
-34 -65 0
-34 -68 0
-34 -70 0
-34 -72 0
-34 -76 0
-34 -78 0
-34 -79 0
-35 -65 0
-35 -66 0
-35 -73 0
-36 -65 0
-36 -66 0
-36 -67 0
-36 -72 0
-36 -75 0
-36 -76 0
-36 -79 0
-36 -80 0
-37 -65 0
-37 -66 0
-37 -67 0
-37 -68 0
-37 -72 0
-37 -73 0
-37 -74 0
-37 -75 0
-37 -76 0
-37 -78 0
-37 -79 0
-37 -80 0
-38 -65 0
-38 -66 0
-38 -67 0
-38 -68 0
-38 -69 0
-38 -71 0
-38 -74 0
-38 -79 0
-39 -65 0
-39 -66 0
-39 -67 0
-39 -68 0
-39 -69 0
-39 -70 0
-39 -76 0
-39 -77 0
-39 -79 0
-40 -65 0
-40 -66 0
-40 -67 0
-40 -68 0
-40 -69 0
-40 -70 0
-40 -71 0
-40 -78 0
-40 -79 0
-41 -65 0
-41 -66 0
-41 -67 0
-41 -68 0
-41 -69 0
-41 -70 0
-41 -71 0
-41 -72 0
-41 -76 0
-41 -77 0
-41 -79 0
-41 -80 0
-42 -65 0
-42 -66 0
-42 -67 0
-42 -68 0
-42 -69 0
-42 -70 0
-42 -71 0
-42 -72 0
-42 -73 0
-42 -77 0
-42 -78 0
-43 -65 0
-43 -66 0
-43 -67 0
-43 -68 0
-43 -69 0
-43 -70 0
-43 -71 0
-43 -72 0
-43 -73 0
-43 -74 0
-43 -77 0
-43 -78 0
-44 -65 0
-44 -66 0
-44 -67 0
-44 -68 0
-44 -69 0
-44 -70 0
-44 -71 0
-44 -72 0
-44 -73 0
-44 -74 0
-44 -75 0
-44 -77 0
-44 -79 0
-45 -65 0
-45 -66 0
-45 -67 0
-45 -68 0
-45 -69 0
-45 -70 0
-45 -71 0
-45 -72 0
-45 -73 0
-45 -74 0
-45 -75 0
-45 -76 0
-45 -78 0
-45 -79 0
-45 -80 0
-46 -65 0
-46 -66 0
-46 -67 0
-46 -68 0
-46 -69 0
-46 -70 0
-46 -71 0
-46 -72 0
-46 -73 0
-46 -74 0
-46 -75 0
-46 -76 0
-46 -77 0
-47 -65 0
-47 -66 0
-47 -67 0
-47 -68 0
-47 -69 0
-47 -70 0
-47 -71 0
-47 -72 0
-47 -73 0
-47 -74 0
-47 -75 0
-47 -76 0
-47 -77 0
-47 -78 0
-48 -65 0
-48 -66 0
-48 -67 0
-48 -68 0
-48 -69 0
-48 -70 0
-48 -71 0
-48 -72 0
-48 -73 0
-48 -74 0
-48 -75 0
-48 -76 0
-48 -77 0
-48 -78 0
-48 -79 0
-33 -82 0
-33 -96 0
-34 -81 0
-34 -84 0
-34 -86 0
-34 -88 0
-34 -92 0
-34 -94 0
-34 -95 0
-35 -81 0
-35 -82 0
-35 -89 0
-36 -81 0
-36 -82 0
-36 -83 0
-36 -88 0
-36 -91 0
-36 -92 0
-36 -95 0
-36 -96 0
-37 -81 0
-37 -82 0
-37 -83 0
-37 -84 0
-37 -88 0
-37 -89 0
-37 -90 0
-37 -91 0
-37 -92 0
-37 -94 0
-37 -95 0
-37 -96 0
-38 -81 0
-38 -82 0
-38 -83 0
-38 -84 0
-38 -85 0
-38 -87 0
-38 -90 0
-38 -95 0
-39 -81 0
-39 -82 0
-39 -83 0
-39 -84 0
-39 -85 0
-39 -86 0
-39 -92 0
-39 -93 0
-39 -95 0
-40 -81 0
-40 -82 0
-40 -83 0
-40 -84 0
-40 -85 0
-40 -86 0
-40 -87 0
-40 -94 0
-40 -95 0
-41 -81 0
-41 -82 0
-41 -83 0
-41 -84 0
-41 -85 0
-41 -86 0
-41 -87 0
-41 -88 0
-41 -92 0
-41 -93 0
-41 -95 0
-41 -96 0
-42 -81 0
-42 -82 0
-42 -83 0
-42 -84 0
-42 -85 0
-42 -86 0
-42 -87 0
-42 -88 0
-42 -89 0
-42 -93 0
-42 -94 0
-43 -81 0
-43 -82 0
-43 -83 0
-43 -84 0
-43 -85 0
-43 -86 0
-43 -87 0
-43 -88 0
-43 -89 0
-43 -90 0
-43 -93 0
-43 -94 0
-44 -81 0
-44 -82 0
-44 -83 0
-44 -84 0
-44 -85 0
-44 -86 0
-44 -87 0
-44 -88 0
-44 -89 0
-44 -90 0
-44 -91 0
-44 -93 0
-44 -95 0
-45 -81 0
-45 -82 0
-45 -83 0
-45 -84 0
-45 -85 0
-45 -86 0
-45 -87 0
-45 -88 0
-45 -89 0
-45 -90 0
-45 -91 0
-45 -92 0
-45 -94 0
-45 -95 0
-45 -96 0
-46 -81 0
-46 -82 0
-46 -83 0
-46 -84 0
-46 -85 0
-46 -86 0
-46 -87 0
-46 -88 0
-46 -89 0
-46 -90 0
-46 -91 0
-46 -92 0
-46 -93 0
-47 -81 0
-47 -82 0
-47 -83 0
-47 -84 0
-47 -85 0
-47 -86 0
-47 -87 0
-47 -88 0
-47 -89 0
-47 -90 0
-47 -91 0
-47 -92 0
-47 -93 0
-47 -94 0
-48 -81 0
-48 -82 0
-48 -83 0
-48 -84 0
-48 -85 0
-48 -86 0
-48 -87 0
-48 -88 0
-48 -89 0
-48 -90 0
-48 -91 0
-48 -92 0
-48 -93 0
-48 -94 0
-48 -95 0
-49 -66 0
-49 -80 0
-50 -65 0
-50 -68 0
-50 -70 0
-50 -72 0
-50 -76 0
-50 -78 0
-50 -79 0
-51 -65 0
-51 -66 0
-51 -73 0
-52 -65 0
-52 -66 0
-52 -67 0
-52 -72 0
-52 -75 0
-52 -76 0
-52 -79 0
-52 -80 0
-53 -65 0
-53 -66 0
-53 -67 0
-53 -68 0
-53 -72 0
-53 -73 0
-53 -74 0
-53 -75 0
-53 -76 0
-53 -78 0
-53 -79 0
-53 -80 0
-54 -65 0
-54 -66 0
-54 -67 0
-54 -68 0
-54 -69 0
-54 -71 0
-54 -74 0
-54 -79 0
-55 -65 0
-55 -66 0
-55 -67 0
-55 -68 0
-55 -69 0
-55 -70 0
-55 -76 0
-55 -77 0
-55 -79 0
-56 -65 0
-56 -66 0
-56 -67 0
-56 -68 0
-56 -69 0
-56 -70 0
-56 -71 0
-56 -78 0
-56 -79 0
-57 -65 0
-57 -66 0
-57 -67 0
-57 -68 0
-57 -69 0
-57 -70 0
-57 -71 0
-57 -72 0
-57 -76 0
-57 -77 0
-57 -79 0
-57 -80 0
-58 -65 0
-58 -66 0
-58 -67 0
-58 -68 0
-58 -69 0
-58 -70 0
-58 -71 0
-58 -72 0
-58 -73 0
-58 -77 0
-58 -78 0
-59 -65 0
-59 -66 0
-59 -67 0
-59 -68 0
-59 -69 0
-59 -70 0
-59 -71 0
-59 -72 0
-59 -73 0
-59 -74 0
-59 -77 0
-59 -78 0
-60 -65 0
-60 -66 0
-60 -67 0
-60 -68 0
-60 -69 0
-60 -70 0
-60 -71 0
-60 -72 0
-60 -73 0
-60 -74 0
-60 -75 0
-60 -77 0
-60 -79 0
-61 -65 0
-61 -66 0
-61 -67 0
-61 -68 0
-61 -69 0
-61 -70 0
-61 -71 0
-61 -72 0
-61 -73 0
-61 -74 0
-61 -75 0
-61 -76 0
-61 -78 0
-61 -79 0
-61 -80 0
-62 -65 0
-62 -66 0
-62 -67 0
-62 -68 0
-62 -69 0
-62 -70 0
-62 -71 0
-62 -72 0
-62 -73 0
-62 -74 0
-62 -75 0
-62 -76 0
-62 -77 0
-63 -65 0
-63 -66 0
-63 -67 0
-63 -68 0
-63 -69 0
-63 -70 0
-63 -71 0
-63 -72 0
-63 -73 0
-63 -74 0
-63 -75 0
-63 -76 0
-63 -77 0
-63 -78 0
-64 -65 0
-64 -66 0
-64 -67 0
-64 -68 0
-64 -69 0
-64 -70 0
-64 -71 0
-64 -72 0
-64 -73 0
-64 -74 0
-64 -75 0
-64 -76 0
-64 -77 0
-64 -78 0
-64 -79 0
-49 -82 0
-49 -96 0
-50 -81 0
-50 -84 0
-50 -86 0
-50 -88 0
-50 -92 0
-50 -94 0
-50 -95 0
-51 -81 0
-51 -82 0
-51 -89 0
-52 -81 0
-52 -82 0
-52 -83 0
-52 -88 0
-52 -91 0
-52 -92 0
-52 -95 0
-52 -96 0
-53 -81 0
-53 -82 0
-53 -83 0
-53 -84 0
-53 -88 0
-53 -89 0
-53 -90 0
-53 -91 0
-53 -92 0
-53 -94 0
-53 -95 0
-53 -96 0
-54 -81 0
-54 -82 0
-54 -83 0
-54 -84 0
-54 -85 0
-54 -87 0
-54 -90 0
-54 -95 0
-55 -81 0
-55 -82 0
-55 -83 0
-55 -84 0
-55 -85 0
-55 -86 0
-55 -92 0
-55 -93 0
-55 -95 0
-56 -81 0
-56 -82 0
-56 -83 0
-56 -84 0
-56 -85 0
-56 -86 0
-56 -87 0
-56 -94 0
-56 -95 0
-57 -81 0
-57 -82 0
-57 -83 0
-57 -84 0
-57 -85 0
-57 -86 0
-57 -87 0
-57 -88 0
-57 -92 0
-57 -93 0
-57 -95 0
-57 -96 0
-58 -81 0
-58 -82 0
-58 -83 0
-58 -84 0
-58 -85 0
-58 -86 0
-58 -87 0
-58 -88 0
-58 -89 0
-58 -93 0
-58 -94 0
-59 -81 0
-59 -82 0
-59 -83 0
-59 -84 0
-59 -85 0
-59 -86 0
-59 -87 0
-59 -88 0
-59 -89 0
-59 -90 0
-59 -93 0
-59 -94 0
-60 -81 0
-60 -82 0
-60 -83 0
-60 -84 0
-60 -85 0
-60 -86 0
-60 -87 0
-60 -88 0
-60 -89 0
-60 -90 0
-60 -91 0
-60 -93 0
-60 -95 0
-61 -81 0
-61 -82 0
-61 -83 0
-61 -84 0
-61 -85 0
-61 -86 0
-61 -87 0
-61 -88 0
-61 -89 0
-61 -90 0
-61 -91 0
-61 -92 0
-61 -94 0
-61 -95 0
-61 -96 0
-62 -81 0
-62 -82 0
-62 -83 0
-62 -84 0
-62 -85 0
-62 -86 0
-62 -87 0
-62 -88 0
-62 -89 0
-62 -90 0
-62 -91 0
-62 -92 0
-62 -93 0
-63 -81 0
-63 -82 0
-63 -83 0
-63 -84 0
-63 -85 0
-63 -86 0
-63 -87 0
-63 -88 0
-63 -89 0
-63 -90 0
-63 -91 0
-63 -92 0
-63 -93 0
-63 -94 0
-64 -81 0
-64 -82 0
-64 -83 0
-64 -84 0
-64 -85 0
-64 -86 0
-64 -87 0
-64 -88 0
-64 -89 0
-64 -90 0
-64 -91 0
-64 -92 0
-64 -93 0
-64 -94 0
-64 -95 0
-65 -82 0
-65 -96 0
-66 -81 0
-66 -84 0
-66 -86 0
-66 -88 0
-66 -92 0
-66 -94 0
-66 -95 0
-67 -81 0
-67 -82 0
-67 -89 0
-68 -81 0
-68 -82 0
-68 -83 0
-68 -88 0
-68 -91 0
-68 -92 0
-68 -95 0
-68 -96 0
-69 -81 0
-69 -82 0
-69 -83 0
-69 -84 0
-69 -88 0
-69 -89 0
-69 -90 0
-69 -91 0
-69 -92 0
-69 -94 0
-69 -95 0
-69 -96 0
-70 -81 0
-70 -82 0
-70 -83 0
-70 -84 0
-70 -85 0
-70 -87 0
-70 -90 0
-70 -95 0
-71 -81 0
-71 -82 0
-71 -83 0
-71 -84 0
-71 -85 0
-71 -86 0
-71 -92 0
-71 -93 0
-71 -95 0
-72 -81 0
-72 -82 0
-72 -83 0
-72 -84 0
-72 -85 0
-72 -86 0
-72 -87 0
-72 -94 0
-72 -95 0
-73 -81 0
-73 -82 0
-73 -83 0
-73 -84 0
-73 -85 0
-73 -86 0
-73 -87 0
-73 -88 0
-73 -92 0
-73 -93 0
-73 -95 0
-73 -96 0
-74 -81 0
-74 -82 0
-74 -83 0
-74 -84 0
-74 -85 0
-74 -86 0
-74 -87 0
-74 -88 0
-74 -89 0
-74 -93 0
-74 -94 0
-75 -81 0
-75 -82 0
-75 -83 0
-75 -84 0
-75 -85 0
-75 -86 0
-75 -87 0
-75 -88 0
-75 -89 0
-75 -90 0
-75 -93 0
-75 -94 0
-76 -81 0
-76 -82 0
-76 -83 0
-76 -84 0
-76 -85 0
-76 -86 0
-76 -87 0
-76 -88 0
-76 -89 0
-76 -90 0
-76 -91 0
-76 -93 0
-76 -95 0
-77 -81 0
-77 -82 0
-77 -83 0
-77 -84 0
-77 -85 0
-77 -86 0
-77 -87 0
-77 -88 0
-77 -89 0
-77 -90 0
-77 -91 0
-77 -92 0
-77 -94 0
-77 -95 0
-77 -96 0
-78 -81 0
-78 -82 0
-78 -83 0
-78 -84 0
-78 -85 0
-78 -86 0
-78 -87 0
-78 -88 0
-78 -89 0
-78 -90 0
-78 -91 0
-78 -92 0
-78 -93 0
-79 -81 0
-79 -82 0
-79 -83 0
-79 -84 0
-79 -85 0
-79 -86 0
-79 -87 0
-79 -88 0
-79 -89 0
-79 -90 0
-79 -91 0
-79 -92 0
-79 -93 0
-79 -94 0
-80 -81 0
-80 -82 0
-80 -83 0
-80 -84 0
-80 -85 0
-80 -86 0
-80 -87 0
-80 -88 0
-80 -89 0
-80 -90 0
-80 -91 0
-80 -92 0
-80 -93 0
-80 -94 0
-80 -95 0
